\ENCODING=ISO-8859-1
\Problem name: 

Minimize
 obj: 0 x1 + 0 x17 + 10 x18 + 15 x19 + 30 x20 + 10 x21 + 35 x23 + 25 x24
      + 15 x25 + 35 x26 + 30 x28 + 20 x29 + 25 x30 + 30 x31
Subject To
 c1:  x2 - x5 - x6 - x7 - x8 + x10 + x14  = 1
 c2:  x3 + x7 - x9 - x10 - x11 - x12 + x15  = 1
 c3:  x4 + x8 + x12 - x13 - x14 - x15 - x16  = 1
 c4:  x18 + x19 + x20  = 1
 c5:  x21 + x23 + x24  = 1
 c6:  x25 + x26 + x28  = 1
 c7:  x29 + x30 + x31  = 1
 c8:  x21 + x25 + x29  = 1
 c9:  x18 + x26 + x30  = 1
 c10: x19 + x23 + x31  = 1
 c11: x20 + x24 + x28  = 1
 c12: x2 - 3 x18 <= 0
 c13: x3 - 3 x19 <= 0
 c14: x4 - 3 x20 <= 0
 c15: x6 - 3 x22 <= 0
 c16: x7 - 3 x23 <= 0
 c17: x8 - 3 x24 <= 0
 c18: x10 - 3 x26 <= 0
 c19: x11 - 3 x27 <= 0
 c20: x12 - 3 x28 <= 0
 c21: x14 - 3 x30 <= 0
 c22: x15 - 3 x31 <= 0
 c23: x16 - 3 x32 <= 0
Bounds
 0 <= x17 <= 1
 0 <= x18 <= 1
 0 <= x19 <= 1
 0 <= x20 <= 1
 0 <= x21 <= 1
 0 <= x22 <= 1
 0 <= x23 <= 1
 0 <= x24 <= 1
 0 <= x25 <= 1
 0 <= x26 <= 1
 0 <= x27 <= 1
 0 <= x28 <= 1
 0 <= x29 <= 1
 0 <= x30 <= 1
 0 <= x31 <= 1
 0 <= x32 <= 1
Binaries
 x17  x18  x19  x20  x21  x22  x23  x24  x25  x26  x27  x28  x29  x30  x31 
 x32 
End
